data/solutions/planning/wellformed/moderate/weighting/wellformed_moderate_instance5_gurobi.sol
Elapsed time: 0.29
Nodes explored: 5579
Nodes left: 1
Relative gap: 0.0
Upper bound: 47082.0
Lower bound: 47082
C[0]=6726.0
C[1]=6726.0
C[2]=6726.0
y[0]=0
y[1]=2
y[2]=1
y[3]=1
y[4]=1
y[5]=2
y[6]=1
y[7]=1
y[8]=1
y[9]=2
y[10]=0
y[11]=2
y[12]=2
y[13]=0
y[14]=0
y[15]=0
y[16]=1
y[17]=0
y[18]=1
y[19]=2
